NAME : tsp45_15.201.tour
COMMENT : Length = 201
COMMENT : Found by LKH [Keld Helsgaun]
TYPE : TOUR
DIMENSION : 45
TOUR_SECTION
1
12
15
28
21
34
8
23
16
20
13
10
40
29
11
22
27
33
44
37
26
17
7
5
31
39
45
38
19
3
4
30
41
35
43
18
25
6
14
42
2
24
9
36
32
-1
EOF
